p cnf 100 1
100 0
w 1 0.144521
w 2 1 1
w 2 -1 0
w 3 2 1
w 3 -2 0
w 4 3 0
w 4 -3 1
w 5 4 0
w 5 -4 1
w 6 5 1
w 6 -5 0
w 7 6 0.114504
w 7 -6 0.395255
w 8 7 1
w 8 -7 0
w 9 8 0
w 9 -8 1
w 10 9 1
w 10 -9 0
w 11 1 0.29811
w 11 -1 0.866275
w 12 11 2 1
w 12 11 -2 1
w 12 -11 2 0
w 12 -11 -2 1
w 13 12 3 0
w 13 12 -3 0
w 13 -12 3 1
w 13 -12 -3 1
w 14 13 4 0.0252281
w 14 13 -4 0.468522
w 14 -13 4 0.638239
w 14 -13 -4 0.838059
w 15 14 5 0.685434
w 15 14 -5 0.346779
w 15 -14 5 0.193828
w 15 -14 -5 0.435783
w 16 15 6 0
w 16 15 -6 1
w 16 -15 6 0
w 16 -15 -6 1
w 17 16 7 0.120452
w 17 16 -7 0.102152
w 17 -16 7 0.609877
w 17 -16 -7 0.418562
w 18 17 8 0.277279
w 18 17 -8 0.679569
w 18 -17 8 0.479788
w 18 -17 -8 0.45336
w 19 18 9 0
w 19 18 -9 1
w 19 -18 9 1
w 19 -18 -9 1
w 20 19 10 0.538812
w 20 19 -10 0.55979
w 20 -19 10 0.393117
w 20 -19 -10 0.177051
w 21 11 1
w 21 -11 0
w 22 21 12 0.744628
w 22 21 -12 0.478618
w 22 -21 12 0.298269
w 22 -21 -12 0.205911
w 23 22 13 0
w 23 22 -13 1
w 23 -22 13 0
w 23 -22 -13 0
w 24 23 14 1
w 24 23 -14 0
w 24 -23 14 0
w 24 -23 -14 1
w 25 24 15 1
w 25 24 -15 0
w 25 -24 15 0
w 25 -24 -15 0
w 26 25 16 1
w 26 25 -16 1
w 26 -25 16 0
w 26 -25 -16 0
w 27 26 17 1
w 27 26 -17 0
w 27 -26 17 1
w 27 -26 -17 1
w 28 27 18 0
w 28 27 -18 0
w 28 -27 18 0
w 28 -27 -18 1
w 29 28 19 0.95448
w 29 28 -19 0.543667
w 29 -28 19 0.668051
w 29 -28 -19 0.789261
w 30 29 20 0.693755
w 30 29 -20 0.726193
w 30 -29 20 0.778372
w 30 -29 -20 0.138021
w 31 21 1
w 31 -21 0
w 32 31 22 0
w 32 31 -22 1
w 32 -31 22 1
w 32 -31 -22 1
w 33 32 23 1
w 33 32 -23 0
w 33 -32 23 0
w 33 -32 -23 0
w 34 33 24 0
w 34 33 -24 0
w 34 -33 24 1
w 34 -33 -24 0
w 35 34 25 1
w 35 34 -25 1
w 35 -34 25 1
w 35 -34 -25 0
w 36 35 26 1
w 36 35 -26 0
w 36 -35 26 0
w 36 -35 -26 0
w 37 36 27 0
w 37 36 -27 0
w 37 -36 27 1
w 37 -36 -27 1
w 38 37 28 0
w 38 37 -28 0
w 38 -37 28 1
w 38 -37 -28 1
w 39 38 29 0
w 39 38 -29 1
w 39 -38 29 0
w 39 -38 -29 1
w 40 39 30 0
w 40 39 -30 1
w 40 -39 30 1
w 40 -39 -30 0
w 41 31 1
w 41 -31 0
w 42 41 32 0
w 42 41 -32 1
w 42 -41 32 1
w 42 -41 -32 1
w 43 42 33 0
w 43 42 -33 1
w 43 -42 33 0
w 43 -42 -33 0
w 44 43 34 1
w 44 43 -34 0
w 44 -43 34 0
w 44 -43 -34 0
w 45 44 35 1
w 45 44 -35 1
w 45 -44 35 0
w 45 -44 -35 1
w 46 45 36 0.953558
w 46 45 -36 0.897145
w 46 -45 36 0.150155
w 46 -45 -36 0.704911
w 47 46 37 0
w 47 46 -37 0
w 47 -46 37 0
w 47 -46 -37 1
w 48 47 38 1
w 48 47 -38 1
w 48 -47 38 1
w 48 -47 -38 0
w 49 48 39 1
w 49 48 -39 1
w 49 -48 39 0
w 49 -48 -39 1
w 50 49 40 1
w 50 49 -40 1
w 50 -49 40 0
w 50 -49 -40 0
w 51 41 0.778083
w 51 -41 0.514689
w 52 51 42 0
w 52 51 -42 1
w 52 -51 42 0
w 52 -51 -42 0
w 53 52 43 1
w 53 52 -43 0
w 53 -52 43 0
w 53 -52 -43 0
w 54 53 44 1
w 54 53 -44 1
w 54 -53 44 0
w 54 -53 -44 0
w 55 54 45 0.0339753
w 55 54 -45 0.739106
w 55 -54 45 0.118101
w 55 -54 -45 0.409235
w 56 55 46 1
w 56 55 -46 0
w 56 -55 46 1
w 56 -55 -46 0
w 57 56 47 1
w 57 56 -47 1
w 57 -56 47 0
w 57 -56 -47 1
w 58 57 48 0
w 58 57 -48 0
w 58 -57 48 1
w 58 -57 -48 0
w 59 58 49 1
w 59 58 -49 1
w 59 -58 49 0
w 59 -58 -49 0
w 60 59 50 1
w 60 59 -50 1
w 60 -59 50 1
w 60 -59 -50 0
w 61 51 1
w 61 -51 0
w 62 61 52 1
w 62 61 -52 1
w 62 -61 52 0
w 62 -61 -52 1
w 63 62 53 1
w 63 62 -53 0
w 63 -62 53 0
w 63 -62 -53 1
w 64 63 54 1
w 64 63 -54 1
w 64 -63 54 0
w 64 -63 -54 0
w 65 64 55 1
w 65 64 -55 0
w 65 -64 55 0
w 65 -64 -55 1
w 66 65 56 0.239342
w 66 65 -56 0.577388
w 66 -65 56 0.876926
w 66 -65 -56 0.539254
w 67 66 57 0.805699
w 67 66 -57 0.811435
w 67 -66 57 0.197914
w 67 -66 -57 0.27591
w 68 67 58 0.549755
w 68 67 -58 0.485227
w 68 -67 58 0.165674
w 68 -67 -58 0.310831
w 69 68 59 0
w 69 68 -59 1
w 69 -68 59 0
w 69 -68 -59 1
w 70 69 60 0.00441423
w 70 69 -60 0.139009
w 70 -69 60 0.385888
w 70 -69 -60 0.973097
w 71 61 0
w 71 -61 1
w 72 71 62 1
w 72 71 -62 1
w 72 -71 62 1
w 72 -71 -62 0
w 73 72 63 0
w 73 72 -63 0
w 73 -72 63 1
w 73 -72 -63 1
w 74 73 64 1
w 74 73 -64 1
w 74 -73 64 0
w 74 -73 -64 1
w 75 74 65 1
w 75 74 -65 1
w 75 -74 65 0
w 75 -74 -65 1
w 76 75 66 0.674396
w 76 75 -66 0.334535
w 76 -75 66 0.991201
w 76 -75 -66 0.653646
w 77 76 67 1
w 77 76 -67 1
w 77 -76 67 0
w 77 -76 -67 0
w 78 77 68 0.652019
w 78 77 -68 0.645522
w 78 -77 68 0.0945542
w 78 -77 -68 0.930221
w 79 78 69 1
w 79 78 -69 0
w 79 -78 69 0
w 79 -78 -69 0
w 80 79 70 0
w 80 79 -70 0
w 80 -79 70 1
w 80 -79 -70 1
w 81 71 0
w 81 -71 1
w 82 81 72 1
w 82 81 -72 0
w 82 -81 72 0
w 82 -81 -72 0
w 83 82 73 1
w 83 82 -73 0
w 83 -82 73 0
w 83 -82 -73 1
w 84 83 74 0
w 84 83 -74 1
w 84 -83 74 1
w 84 -83 -74 0
w 85 84 75 1
w 85 84 -75 0
w 85 -84 75 1
w 85 -84 -75 0
w 86 85 76 1
w 86 85 -76 1
w 86 -85 76 0
w 86 -85 -76 1
w 87 86 77 1
w 87 86 -77 0
w 87 -86 77 0
w 87 -86 -77 0
w 88 87 78 0
w 88 87 -78 0
w 88 -87 78 1
w 88 -87 -78 1
w 89 88 79 0
w 89 88 -79 0
w 89 -88 79 1
w 89 -88 -79 0
w 90 89 80 0
w 90 89 -80 0
w 90 -89 80 1
w 90 -89 -80 1
w 91 81 0
w 91 -81 1
w 92 91 82 1
w 92 91 -82 1
w 92 -91 82 1
w 92 -91 -82 0
w 93 92 83 0
w 93 92 -83 1
w 93 -92 83 1
w 93 -92 -83 1
w 94 93 84 0
w 94 93 -84 1
w 94 -93 84 0
w 94 -93 -84 1
w 95 94 85 1
w 95 94 -85 0
w 95 -94 85 1
w 95 -94 -85 1
w 96 95 86 0.658375
w 96 95 -86 0.743707
w 96 -95 86 0.794064
w 96 -95 -86 0.734327
w 97 96 87 1
w 97 96 -87 0
w 97 -96 87 0
w 97 -96 -87 0
w 98 97 88 1
w 98 97 -88 0
w 98 -97 88 1
w 98 -97 -88 1
w 99 98 89 0.57532
w 99 98 -89 0.57364
w 99 -98 89 0.629142
w 99 -98 -89 0.894144
w 100 99 90 0
w 100 99 -90 0
w 100 -99 90 0
w 100 -99 -90 1